(set-logic HORN)
(declare-datatypes ((Bool_0 0)) (((false_0 ) (true_0 ))))
(declare-fun diseqBool_0 (Bool_0 Bool_0) Bool)
(declare-datatypes ((Nat_0 0)) (((Z_0 ) (S_0 (projS_0 Nat_0)))))
(declare-datatypes ((list_0 0)) (((nil_0 ) (cons_0 (head_0 Nat_0) (tail_0 list_0)))))
(declare-fun len_0 (Nat_0 list_0) Bool)
(declare-fun x_1 (Bool_0 Nat_0 Nat_0) Bool)
(declare-fun delete_0 (list_0 Nat_0 list_0) Bool)
(declare-fun x_5 (Bool_0 Nat_0 Nat_0) Bool)
(assert (diseqBool_0 false_0 true_0))
(assert (diseqBool_0 true_0 false_0))
(assert (forall ((x_9 Nat_0) (y_0 Nat_0) (xs_0 list_0))
	(=> (len_0 x_9 xs_0) (len_0 (S_0 x_9) (cons_0 y_0 xs_0)))))
(assert (len_0 Z_0 nil_0))
(assert (forall ((x_11 Bool_0) (y_2 Nat_0) (x_3 Nat_0))
	(=> (x_1 x_11 x_3 y_2) (x_1 x_11 (S_0 x_3) (S_0 y_2)))))
(assert (forall ((x_3 Nat_0))
	(x_1 false_0 (S_0 x_3) Z_0)))
(assert (forall ((z_1 Nat_0))
	(x_1 false_0 Z_0 (S_0 z_1))))
(assert (x_1 true_0 Z_0 Z_0))
(assert (forall ((x_17 list_0) (z_2 Nat_0) (xs_1 list_0) (x_4 Nat_0))
	(=> (and (delete_0 x_17 x_4 xs_1) (x_1 true_0 x_4 z_2)) (delete_0 x_17 x_4 (cons_0 z_2 xs_1)))))
(assert (forall ((x_21 list_0) (x_19 Bool_0) (z_2 Nat_0) (xs_1 list_0) (x_4 Nat_0))
	(=> (and (diseqBool_0 x_19 true_0) (delete_0 x_21 x_4 xs_1) (x_1 x_19 x_4 z_2)) (delete_0 (cons_0 z_2 x_21) x_4 (cons_0 z_2 xs_1)))))
(assert (forall ((x_4 Nat_0))
	(delete_0 nil_0 x_4 nil_0)))
(assert (forall ((x_23 Bool_0) (x_7 Nat_0) (z_3 Nat_0))
	(=> (x_5 x_23 z_3 x_7) (x_5 x_23 (S_0 z_3) (S_0 x_7)))))
(assert (forall ((z_3 Nat_0))
	(x_5 false_0 (S_0 z_3) Z_0)))
(assert (forall ((y_4 Nat_0))
	(x_5 true_0 Z_0 y_4)))
(assert (forall ((x_27 list_0) (x_28 Nat_0) (x_29 Nat_0) (x_30 Bool_0) (n_0 Nat_0) (xs_2 list_0))
	(=> (and (diseqBool_0 x_30 true_0) (delete_0 x_27 n_0 xs_2) (len_0 x_28 x_27) (len_0 x_29 xs_2) (x_5 x_30 x_28 x_29)) false)))
(check-sat)
(get-model)
